Traveling Salesman Problem/TSP_generados/Aleatorio1620390933_9.tsp
NAME: Aleatorio1620390933_9.tsp
COMMENT: Randomly generated scenario
TYPE: TSP
DIMENSION: 9
EDGE_WEIGHT_TYPE: ATT
NODE_COORD_SECTION
1 5.56 15.23
2 14.94 49.98
3 18.65 28.87
4 5.04 44.68
5 23.59 31.05
6 21.43 35.55
7 15.88 1.19
8 8.52 18.21
9 1.91 11.74
