Traveling Salesman Problem/TSP_generados/Aleatorio1620390933_9.opt.tour
NAME: Aleatorio1620390933_9.opt.tour
COMMENT: Optimal solution for Aleatorio1620390933_9 (118.71527843934044)
TYPE: TOUR
DIMENSION: 9
TOUR_SECTION
1 8 4 2 6 5 3 7 9
-1
EOF
